dates = {'2022-05-03','2022-05-04','2022-05-05','2022-05-06','2022-05-07','2022-05-08','2022-05-09','2022-05-10','2022-05-11','2022-05-12','2022-05-13','2022-05-14','2022-05-15','2022-05-16','2022-05-17','2022-05-18','2022-05-19','2022-05-20','2022-05-21','2022-05-22','2022-05-23'};

daysOfWeek = [Tuesday,Wednesday,Thursday,Friday,Saturday,Sunday,Monday,Tuesday,Wednesday,Thursday,Friday,Saturday,Sunday,Monday,Tuesday,Wednesday,Thursday,Friday,Saturday,Sunday,Monday];

% For this week, how many people will be here.
numPeople = [40,40,40,40,40,40,25,25,25,25,25,25,25,25,25,25,25,25,25,25,25];

% Physical workers need 50 to 100 % more nutrients per day.
numPhysicalWorkers = [14.5,14.5,14.5,14.5,14.5,14.5,14.5,13.0,13.0,13.0,13.0,13.0,13.0,13.0
,13.0,13.0,13.0,13.0,13.0,13.0,13.0];

% Males need +25% more nutrients per day.
numMen = [30,30,30,30,30,30,30,19,19,19,19,19,19,19,19,19,19,19,19,19,19];

% Num people who do not eat categories. contains = {none, meat, milk, gluten, egg, nut, seed, sugars}
numRefusals = [| 0,2,4,0,0,1,0,2 | 0,2,4,0,0,1,0,2 | 0,2,4,0,0,1,0,2 | 0,2,4,0,0,1,0,2 | 0,2,4,0,0,1,0,2 | 0,2,4,0,0,1,0,2 | 0,1,0,1,1,0,1,0 | 0,1,0,1,1,0,1,0 | 0,1,0,1,1,0,1,0 | 0,1,0,1,1,0,1,0 | 0,1,0,1,1,0,1,0 | 0,1,0,1,1,0,1,0 | 0,1,0,1,1,0,1,0 | 0,1,0,1,1,0,1,0 | 0,1,0,1,1,0,1,0 | 0,1,0,1,1,0,1,0 | 0,1,0,1,1,0,1,0 | 0,1,0,1,1,0,1,0 | 0,1,0,1,1,0,1,0 | 0,1,0,1,1,0,1,0 | 0,1,0,1,1,0,1,0 |];

